NAME : RC203.5553.tour
COMMENT : Cost = 0_5553
COMMENT : Found by LKH [Keld Helsgaun] Wed Sep 13 18:34:40 2017
TYPE : TOUR
DIMENSION : 54
TOUR_SECTION
1
43
40
37
44
45
42
39
41
36
38
52
12
16
10
11
14
17
18
48
15
13
53
51
35
32
30
28
27
29
34
33
31
24
22
49
19
20
50
21
23
26
25
54
2
4
6
46
47
9
8
7
5
3
-1
EOF
